NAME          
ROWS
 N  OBJ
 L  c1
COLUMNS
    MARKER    'MARKER'                 'INTORG'
    x[1]      c1        135
    x[1]      OBJ       -102
    x[2]      c1        746
    x[2]      OBJ       -646
    x[3]      c1        68
    x[3]      OBJ       -58
    x[4]      c1        -57
    x[4]      OBJ       -16
    x[5]      c1        853
    x[5]      OBJ       -878
    x[6]      c1        39
    x[6]      OBJ       -87
    x[7]      c1        572
    x[7]      OBJ       -527
    x[8]      c1        266
    x[8]      OBJ       -279
    x[9]      c1        232
    x[9]      OBJ       -322
    x[10]     c1        211
    x[10]     OBJ       -272
    x[11]     c1        970
    x[11]     OBJ       -935
    x[12]     c1        702
    x[12]     OBJ       -796
    x[13]     c1        792
    x[13]     OBJ       -855
    x[14]     c1        839
    x[14]     OBJ       -893
    x[15]     c1        774
    x[15]     OBJ       -682
    x[16]     c1        922
    x[16]     OBJ       -894
    x[17]     c1        973
    x[17]     OBJ       -939
    x[18]     c1        725
    x[18]     OBJ       -675
    x[19]     c1        841
    x[19]     OBJ       -853
    x[20]     c1        693
    x[20]     OBJ       -732
    x[21]     c1        194
    x[21]     OBJ       -106
    x[22]     c1        247
    x[22]     OBJ       -339
    x[23]     c1        914
    x[23]     OBJ       -925
    x[24]     c1        333
    x[24]     OBJ       -345
    x[25]     c1        213
    x[25]     OBJ       -229
    x[26]     c1        682
    x[26]     OBJ       -758
    x[27]     c1        788
    x[27]     OBJ       -791
    x[28]     c1        81
    x[28]     OBJ       -165
    x[29]     c1        584
    x[29]     OBJ       -525
    x[30]     c1        194
    x[30]     OBJ       -256
    x[31]     c1        59
    x[31]     OBJ       -57
    x[32]     c1        404
    x[32]     OBJ       -450
    x[33]     c1        329
    x[33]     OBJ       -389
    x[34]     c1        587
    x[34]     OBJ       -589
    x[35]     c1        808
    x[35]     OBJ       -886
    x[36]     c1        197
    x[36]     OBJ       -161
    x[37]     c1        315
    x[37]     OBJ       -274
    x[38]     c1        152
    x[38]     OBJ       -213
    x[39]     c1        42
    x[39]     OBJ       -26
    x[40]     c1        977
    x[40]     OBJ       -998
    x[41]     c1        103
    x[41]     OBJ       -62
    x[42]     c1        827
    x[42]     OBJ       -901
    x[43]     c1        949
    x[43]     OBJ       -919
    x[44]     c1        37
    x[44]     OBJ       -23
    x[45]     c1        297
    x[45]     OBJ       -270
    x[46]     c1        986
    x[46]     OBJ       -900
    x[47]     c1        680
    x[47]     OBJ       -616
    x[48]     c1        162
    x[48]     OBJ       -148
    x[49]     c1        212
    x[49]     OBJ       -186
    x[50]     c1        505
    x[50]     OBJ       -417
    x[51]     c1        282
    x[51]     OBJ       -275
    x[52]     c1        321
    x[52]     OBJ       -299
    x[53]     c1        393
    x[53]     OBJ       -329
    x[54]     c1        721
    x[54]     OBJ       -818
    x[55]     c1        144
    x[55]     OBJ       -235
    x[56]     c1        464
    x[56]     OBJ       -451
    x[57]     c1        442
    x[57]     OBJ       -384
    x[58]     c1        781
    x[58]     OBJ       -781
    x[59]     c1        396
    x[59]     OBJ       -351
    x[60]     c1        652
    x[60]     OBJ       -741
    x[61]     c1        755
    x[61]     OBJ       -816
    x[62]     c1        672
    x[62]     OBJ       -630
    x[63]     c1        784
    x[63]     OBJ       -700
    x[64]     c1        867
    x[64]     OBJ       -804
    x[65]     c1        100
    x[65]     OBJ       -66
    x[66]     c1        755
    x[66]     OBJ       -748
    x[67]     c1        859
    x[67]     OBJ       -761
    x[68]     c1        491
    x[68]     OBJ       -509
    x[69]     c1        481
    x[69]     OBJ       -479
    x[70]     c1        186
    x[70]     OBJ       -225
    x[71]     c1        101
    x[71]     OBJ       -8
    x[72]     c1        671
    x[72]     OBJ       -695
    x[73]     c1        679
    x[73]     OBJ       -694
    x[74]     c1        387
    x[74]     OBJ       -345
    x[75]     c1        722
    x[75]     OBJ       -769
    x[76]     c1        261
    x[76]     OBJ       -241
    x[77]     c1        626
    x[77]     OBJ       -554
    x[78]     c1        492
    x[78]     OBJ       -466
    x[79]     c1        435
    x[79]     OBJ       -429
    x[80]     c1        385
    x[80]     OBJ       -362
    x[81]     c1        151
    x[81]     OBJ       -172
    x[82]     c1        414
    x[82]     OBJ       -430
    x[83]     c1        463
    x[83]     OBJ       -439
    x[84]     c1        855
    x[84]     OBJ       -830
    x[85]     c1        249
    x[85]     OBJ       -248
    x[86]     c1        320
    x[86]     OBJ       -261
    x[87]     c1        612
    x[87]     OBJ       -564
    x[88]     c1        831
    x[88]     OBJ       -749
    x[89]     c1        729
    x[89]     OBJ       -787
    x[90]     c1        405
    x[90]     OBJ       -505
    x[91]     c1        841
    x[91]     OBJ       -911
    x[92]     c1        362
    x[92]     OBJ       -420
    x[93]     c1        874
    x[93]     OBJ       -837
    x[94]     c1        879
    x[94]     OBJ       -811
    x[95]     c1        846
    x[95]     OBJ       -937
    x[96]     c1        801
    x[96]     OBJ       -770
    x[97]     c1        92
    x[97]     OBJ       -55
    x[98]     c1        458
    x[98]     OBJ       -543
    x[99]     c1        119
    x[99]     OBJ       -124
    x[100]    c1        960
    x[100]    OBJ       -926
RHS
    rhs       c1        25360
RANGES
BOUNDS
 LO bounds    x[1]      0
 PL bounds    x[1]
 LO bounds    x[2]      0
 PL bounds    x[2]
 LO bounds    x[3]      0
 PL bounds    x[3]
 LO bounds    x[4]      0
 PL bounds    x[4]
 LO bounds    x[5]      0
 PL bounds    x[5]
 LO bounds    x[6]      0
 PL bounds    x[6]
 LO bounds    x[7]      0
 PL bounds    x[7]
 LO bounds    x[8]      0
 PL bounds    x[8]
 LO bounds    x[9]      0
 PL bounds    x[9]
 LO bounds    x[10]     0
 PL bounds    x[10]
 LO bounds    x[11]     0
 PL bounds    x[11]
 LO bounds    x[12]     0
 PL bounds    x[12]
 LO bounds    x[13]     0
 PL bounds    x[13]
 LO bounds    x[14]     0
 PL bounds    x[14]
 LO bounds    x[15]     0
 PL bounds    x[15]
 LO bounds    x[16]     0
 PL bounds    x[16]
 LO bounds    x[17]     0
 PL bounds    x[17]
 LO bounds    x[18]     0
 PL bounds    x[18]
 LO bounds    x[19]     0
 PL bounds    x[19]
 LO bounds    x[20]     0
 PL bounds    x[20]
 LO bounds    x[21]     0
 PL bounds    x[21]
 LO bounds    x[22]     0
 PL bounds    x[22]
 LO bounds    x[23]     0
 PL bounds    x[23]
 LO bounds    x[24]     0
 PL bounds    x[24]
 LO bounds    x[25]     0
 PL bounds    x[25]
 LO bounds    x[26]     0
 PL bounds    x[26]
 LO bounds    x[27]     0
 PL bounds    x[27]
 LO bounds    x[28]     0
 PL bounds    x[28]
 LO bounds    x[29]     0
 PL bounds    x[29]
 LO bounds    x[30]     0
 PL bounds    x[30]
 LO bounds    x[31]     0
 PL bounds    x[31]
 LO bounds    x[32]     0
 PL bounds    x[32]
 LO bounds    x[33]     0
 PL bounds    x[33]
 LO bounds    x[34]     0
 PL bounds    x[34]
 LO bounds    x[35]     0
 PL bounds    x[35]
 LO bounds    x[36]     0
 PL bounds    x[36]
 LO bounds    x[37]     0
 PL bounds    x[37]
 LO bounds    x[38]     0
 PL bounds    x[38]
 LO bounds    x[39]     0
 PL bounds    x[39]
 LO bounds    x[40]     0
 PL bounds    x[40]
 LO bounds    x[41]     0
 PL bounds    x[41]
 LO bounds    x[42]     0
 PL bounds    x[42]
 LO bounds    x[43]     0
 PL bounds    x[43]
 LO bounds    x[44]     0
 PL bounds    x[44]
 LO bounds    x[45]     0
 PL bounds    x[45]
 LO bounds    x[46]     0
 PL bounds    x[46]
 LO bounds    x[47]     0
 PL bounds    x[47]
 LO bounds    x[48]     0
 PL bounds    x[48]
 LO bounds    x[49]     0
 PL bounds    x[49]
 LO bounds    x[50]     0
 PL bounds    x[50]
 LO bounds    x[51]     0
 PL bounds    x[51]
 LO bounds    x[52]     0
 PL bounds    x[52]
 LO bounds    x[53]     0
 PL bounds    x[53]
 LO bounds    x[54]     0
 PL bounds    x[54]
 LO bounds    x[55]     0
 PL bounds    x[55]
 LO bounds    x[56]     0
 PL bounds    x[56]
 LO bounds    x[57]     0
 PL bounds    x[57]
 LO bounds    x[58]     0
 PL bounds    x[58]
 LO bounds    x[59]     0
 PL bounds    x[59]
 LO bounds    x[60]     0
 PL bounds    x[60]
 LO bounds    x[61]     0
 PL bounds    x[61]
 LO bounds    x[62]     0
 PL bounds    x[62]
 LO bounds    x[63]     0
 PL bounds    x[63]
 LO bounds    x[64]     0
 PL bounds    x[64]
 LO bounds    x[65]     0
 PL bounds    x[65]
 LO bounds    x[66]     0
 PL bounds    x[66]
 LO bounds    x[67]     0
 PL bounds    x[67]
 LO bounds    x[68]     0
 PL bounds    x[68]
 LO bounds    x[69]     0
 PL bounds    x[69]
 LO bounds    x[70]     0
 PL bounds    x[70]
 LO bounds    x[71]     0
 PL bounds    x[71]
 LO bounds    x[72]     0
 PL bounds    x[72]
 LO bounds    x[73]     0
 PL bounds    x[73]
 LO bounds    x[74]     0
 PL bounds    x[74]
 LO bounds    x[75]     0
 PL bounds    x[75]
 LO bounds    x[76]     0
 PL bounds    x[76]
 LO bounds    x[77]     0
 PL bounds    x[77]
 LO bounds    x[78]     0
 PL bounds    x[78]
 LO bounds    x[79]     0
 PL bounds    x[79]
 LO bounds    x[80]     0
 PL bounds    x[80]
 LO bounds    x[81]     0
 PL bounds    x[81]
 LO bounds    x[82]     0
 PL bounds    x[82]
 LO bounds    x[83]     0
 PL bounds    x[83]
 LO bounds    x[84]     0
 PL bounds    x[84]
 LO bounds    x[85]     0
 PL bounds    x[85]
 LO bounds    x[86]     0
 PL bounds    x[86]
 LO bounds    x[87]     0
 PL bounds    x[87]
 LO bounds    x[88]     0
 PL bounds    x[88]
 LO bounds    x[89]     0
 PL bounds    x[89]
 LO bounds    x[90]     0
 PL bounds    x[90]
 LO bounds    x[91]     0
 PL bounds    x[91]
 LO bounds    x[92]     0
 PL bounds    x[92]
 LO bounds    x[93]     0
 PL bounds    x[93]
 LO bounds    x[94]     0
 PL bounds    x[94]
 LO bounds    x[95]     0
 PL bounds    x[95]
 LO bounds    x[96]     0
 PL bounds    x[96]
 LO bounds    x[97]     0
 PL bounds    x[97]
 LO bounds    x[98]     0
 PL bounds    x[98]
 LO bounds    x[99]     0
 PL bounds    x[99]
 LO bounds    x[100]    0
 PL bounds    x[100]
ENDATA
